Instance Name : r211
Date : 2022-07-18
Solution
Route 1 : 94 95 92 98 85 61 16 86 38 44 14 42 43 15 57 2 87 97 13
Route 2 : 28 76 12 21 72 75 56 39 67 23 41 22 74 73 40 58 53
Route 3 : 27 69 31 30 51 9 81 33 79 3 29 78 34 35 71 65 66 20 32 90 63 10 70 1 50 77 68 80 24 54 55 25 4 26
Route 4 : 52 18 83 8 82 7 88 62 19 11 64 49 36 47 48 46 45 17 84 5 60 99 93 91 100 37 59 96 6 89
